language ESSENCE' 1.0

letting fixed be 
[
    [8,4,2,0,0,3,7,1,9],
    [0,0,3,1,0,4,0,0,0],
    [5,0,1,0,0,0,0,3,4],
    [0,3,8,0,1,0,4,7,5],
    [0,2,0,3,0,7,1,6,8],
    [1,0,7,0,0,0,2,9,3],
    [3,0,6,0,0,0,9,0,1],
    [0,0,0,9,3,1,0,0,0],
    [2,1,9,8,0,0,3,0,7]
]